p cnf 841 1284
61 69 128 201 202 0
61 69 128 201 -202 0
61 69 128 -201 202 0
61 69 128 -201 -202 0
62 100 124 203 204 0
62 100 124 203 -204 0
62 100 124 -203 204 0
62 100 124 -203 -204 0
62 108 162 205 206 0
62 108 162 205 -206 0
62 108 162 -205 206 0
62 108 162 -205 -206 0
-108 -124 162 207 208 0
-108 -124 162 207 -208 0
-108 -124 162 -207 208 0
-108 -124 162 -207 -208 0
-69 -124 -162 209 210 0
-69 -124 -162 209 -210 0
-69 -124 -162 -209 210 0
-69 -124 -162 -209 -210 0
61 -62 100 211 212 0
61 -62 100 211 -212 0
61 -62 100 -211 212 0
61 -62 100 -211 -212 0
61 -69 -100 213 214 0
61 -69 -100 213 -214 0
61 -69 -100 -213 214 0
61 -69 -100 -213 -214 0
31 65 128 215 216 0
31 65 128 215 -216 0
31 65 128 -215 216 0
31 65 128 -215 -216 0
31 -61 -65 217 218 0
31 -61 -65 217 -218 0
31 -61 -65 -217 218 0
31 -61 -65 -217 -218 0
-31 -61 128 219 220 0
-31 -61 128 219 -220 0
-31 -61 128 -219 220 0
-31 -61 128 -219 -220 0
6 82 -128 221 222 0
6 82 -128 221 -222 0
6 82 -128 -221 222 0
6 82 -128 -221 -222 0
6 -82 -128 223 224 0
6 -82 -128 223 -224 0
6 -82 -128 -223 224 0
6 -82 -128 -223 -224 0
-70 140 146 225 226 0
-70 140 146 225 -226 0
-70 140 146 -225 226 0
-70 140 146 -225 -226 0
-70 140 -146 227 228 0
-70 140 -146 227 -228 0
-70 140 -146 -227 228 0
-70 140 -146 -227 -228 0
66 78 -140 229 230 0
66 78 -140 229 -230 0
66 78 -140 -229 230 0
66 78 -140 -229 -230 0
29 125 137 231 232 0
29 125 137 231 -232 0
29 125 137 -231 232 0
29 125 137 -231 -232 0
29 125 -137 233 234 0
29 125 -137 233 -234 0
29 125 -137 -233 234 0
29 125 -137 -233 -234 0
12 102 -125 235 236 0
12 102 -125 235 -236 0
12 102 -125 -235 236 0
12 102 -125 -235 -236 0
12 -102 106 237 238 0
12 -102 106 237 -238 0
12 -102 106 -237 238 0
12 -102 106 -237 -238 0
-12 -125 198 239 240 0
-12 -125 198 239 -240 0
-12 -125 198 -239 240 0
-12 -125 198 -239 -240 0
-12 106 -125 241 242 0
-12 106 -125 241 -242 0
-12 106 -125 -241 242 0
-12 106 -125 -241 -242 0
-29 159 193 243 244 0
-29 159 193 243 -244 0
-29 159 193 -243 244 0
-29 159 193 -243 -244 0
-29 159 -193 245 246 0
-29 159 -193 245 -246 0
-29 159 -193 -245 246 0
-29 159 -193 -245 -246 0
50 131 -159 247 248 0
50 131 -159 247 -248 0
50 131 -159 -247 248 0
50 131 -159 -247 -248 0
82 -131 199 249 250 0
82 -131 199 249 -250 0
82 -131 199 -249 250 0
82 -131 199 -249 -250 0
82 -159 -199 251 252 0
82 -159 -199 251 -252 0
82 -159 -199 -251 252 0
82 -159 -199 -251 -252 0
50 -82 -131 253 254 0
50 -82 -131 253 -254 0
50 -82 -131 -253 254 0
50 -82 -131 -253 -254 0
64 112 133 255 256 0
64 112 133 255 -256 0
64 112 133 -255 256 0
64 112 133 -255 -256 0
60 81 107 257 258 0
60 81 107 257 -258 0
60 81 107 -257 258 0
60 81 107 -257 -258 0
99 -133 190 259 260 0
99 -133 190 259 -260 0
99 -133 190 -259 260 0
99 -133 190 -259 -260 0
81 99 -190 261 262 0
81 99 -190 261 -262 0
81 99 -190 -261 262 0
81 99 -190 -261 -262 0
81 -99 -107 263 264 0
81 -99 -107 263 -264 0
81 -99 -107 -263 264 0
81 -99 -107 -263 -264 0
9 160 170 265 266 0
9 160 170 265 -266 0
9 160 170 -265 266 0
9 160 170 -265 -266 0
-9 -81 160 267 268 0
-9 -81 160 267 -268 0
-9 -81 160 -267 268 0
-9 -81 160 -267 -268 0
60 -160 170 269 270 0
60 -160 170 269 -270 0
60 -160 170 -269 270 0
60 -160 170 -269 -270 0
-81 -133 -170 271 272 0
-81 -133 -170 271 -272 0
-81 -133 -170 -271 272 0
-81 -133 -170 -271 -272 0
-60 64 -133 273 274 0
-60 64 -133 273 -274 0
-60 64 -133 -273 274 0
-60 64 -133 -273 -274 0
-64 112 145 275 276 0
-64 112 145 275 -276 0
-64 112 145 -275 276 0
-64 112 145 -275 -276 0
-64 112 -145 277 278 0
-64 112 -145 277 -278 0
-64 112 -145 -277 278 0
-64 112 -145 -277 -278 0
86 -112 144 279 280 0
86 -112 144 279 -280 0
86 -112 144 -279 280 0
86 -112 144 -279 -280 0
86 -112 -144 281 282 0
86 -112 -144 281 -282 0
86 -112 -144 -281 282 0
86 -112 -144 -281 -282 0
-50 -86 -112 283 284 0
-50 -86 -112 283 -284 0
-50 -86 -112 -283 284 0
-50 -86 -112 -283 -284 0
55 98 -106 285 286 0
55 98 -106 285 -286 0
55 98 -106 -285 286 0
55 98 -106 -285 -286 0
55 -98 198 287 288 0
55 -98 198 287 -288 0
55 -98 198 -287 288 0
55 -98 198 -287 -288 0
109 197 -198 289 290 0
109 197 -198 289 -290 0
109 197 -198 -289 290 0
109 197 -198 -289 -290 0
32 134 -197 291 292 0
32 134 -197 291 -292 0
32 134 -197 -291 292 0
32 134 -197 -291 -292 0
32 109 -134 293 294 0
32 109 -134 293 -294 0
32 109 -134 -293 294 0
32 109 -134 -293 -294 0
-32 109 -197 295 296 0
-32 109 -197 295 -296 0
-32 109 -197 -295 296 0
-32 109 -197 -295 -296 0
35 42 51 297 298 0
35 42 51 297 -298 0
35 42 51 -297 298 0
35 42 51 -297 -298 0
-35 51 192 299 300 0
-35 51 192 299 -300 0
-35 51 192 -299 300 0
-35 51 192 -299 -300 0
-51 -109 192 301 302 0
-51 -109 192 301 -302 0
-51 -109 192 -301 302 0
-51 -109 192 -301 -302 0
-51 -172 192 303 304 0
-51 -172 192 303 -304 0
-51 -172 192 -303 304 0
-51 -172 192 -303 -304 0
42 -109 -192 305 306 0
42 -109 -192 305 -306 0
42 -109 -192 -305 306 0
42 -109 -192 -305 -306 0
-42 57 -198 307 308 0
-42 57 -198 307 -308 0
-42 57 -198 -307 308 0
-42 57 -198 -307 -308 0
-42 -57 -109 309 310 0
-42 -57 -109 309 -310 0
-42 -57 -109 -309 310 0
-42 -57 -109 -309 -310 0
14 46 91 311 312 0
14 46 91 311 -312 0
14 46 91 -311 312 0
14 46 91 -311 -312 0
-14 91 98 313 314 0
-14 91 98 313 -314 0
-14 91 98 -313 314 0
-14 91 98 -313 -314 0
-14 91 -98 315 316 0
-14 91 -98 315 -316 0
-14 91 -98 -315 316 0
-14 91 -98 -315 -316 0
46 49 -91 317 318 0
46 49 -91 317 -318 0
46 49 -91 -317 318 0
46 49 -91 -317 -318 0
-46 49 -55 319 320 0
-46 49 -55 319 -320 0
-46 49 -55 -319 320 0
-46 49 -55 -319 -320 0
-49 -55 66 321 322 0
-49 -55 66 321 -322 0
-49 -55 66 -321 322 0
-49 -55 66 -321 -322 0
17 23 -66 323 324 0
17 23 -66 323 -324 0
17 23 -66 -323 324 0
17 23 -66 -323 -324 0
-23 78 167 325 326 0
-23 78 167 325 -326 0
-23 78 167 -325 326 0
-23 78 167 -325 -326 0
-78 121 167 327 328 0
-78 121 167 327 -328 0
-78 121 167 -327 328 0
-78 121 167 -327 -328 0
-78 -121 167 329 330 0
-78 -121 167 329 -330 0
-78 -121 167 -329 330 0
-78 -121 167 -329 -330 0
49 132 142 331 332 0
49 132 142 331 -332 0
49 132 142 -331 332 0
49 132 142 -331 -332 0
-49 132 142 333 334 0
-49 132 142 333 -334 0
-49 132 142 -333 334 0
-49 132 142 -333 -334 0
89 -132 -167 335 336 0
89 -132 -167 335 -336 0
89 -132 -167 -335 336 0
89 -132 -167 -335 -336 0
-89 -132 -167 337 338 0
-89 -132 -167 337 -338 0
-89 -132 -167 -337 338 0
-89 -132 -167 -337 -338 0
17 -23 -142 339 340 0
17 -23 -142 339 -340 0
17 -23 -142 -339 340 0
17 -23 -142 -339 -340 0
-17 -140 163 341 342 0
-17 -140 163 341 -342 0
-17 -140 163 -341 342 0
-17 -140 163 -341 -342 0
-17 -66 -163 343 344 0
-17 -66 -163 343 -344 0
-17 -66 -163 -343 344 0
-17 -66 -163 -343 -344 0
-6 33 68 345 346 0
-6 33 68 345 -346 0
-6 33 68 -345 346 0
-6 33 68 -345 -346 0
33 -68 165 347 348 0
33 -68 165 347 -348 0
33 -68 165 -347 348 0
33 -68 165 -347 -348 0
33 -68 -165 349 350 0
33 -68 -165 349 -350 0
33 -68 -165 -349 350 0
33 -68 -165 -349 -350 0
-6 -33 107 351 352 0
-6 -33 107 351 -352 0
-6 -33 107 -351 352 0
-6 -33 107 -351 -352 0
70 116 155 353 354 0
70 116 155 353 -354 0
70 116 155 -353 354 0
70 116 155 -353 -354 0
5 20 184 355 356 0
5 20 184 355 -356 0
5 20 184 -355 356 0
5 20 184 -355 -356 0
5 20 -184 357 358 0
5 20 -184 357 -358 0
5 20 -184 -357 358 0
5 20 -184 -357 -358 0
-5 122 156 359 360 0
-5 122 156 359 -360 0
-5 122 156 -359 360 0
-5 122 156 -359 -360 0
-5 122 -156 361 362 0
-5 122 -156 361 -362 0
-5 122 -156 -361 362 0
-5 122 -156 -361 -362 0
-5 -116 -122 363 364 0
-5 -116 -122 363 -364 0
-5 -116 -122 -363 364 0
-5 -116 -122 -363 -364 0
-20 -116 172 365 366 0
-20 -116 172 365 -366 0
-20 -116 172 -365 366 0
-20 -116 172 -365 -366 0
-20 155 -172 367 368 0
-20 155 -172 367 -368 0
-20 155 -172 -367 368 0
-20 155 -172 -367 -368 0
70 -107 -155 369 370 0
70 -107 -155 369 -370 0
70 -107 -155 -369 370 0
70 -107 -155 -369 -370 0
-37 -57 -119 371 372 0
-37 -57 -119 371 -372 0
-37 -57 -119 -371 372 0
-37 -57 -119 -371 -372 0
-65 117 -188 373 374 0
-65 117 -188 373 -374 0
-65 117 -188 -373 374 0
-65 117 -188 -373 -374 0
21 -22 97 375 376 0
21 -22 97 375 -376 0
21 -22 97 -375 376 0
21 -22 97 -375 -376 0
-21 -22 97 377 378 0
-21 -22 97 377 -378 0
-21 -22 97 -377 378 0
-21 -22 97 -377 -378 0
45 -122 181 379 380 0
45 -122 181 379 -380 0
45 -122 181 -379 380 0
45 -122 181 -379 -380 0
45 -122 -181 381 382 0
45 -122 -181 381 -382 0
45 -122 -181 -381 382 0
45 -122 -181 -381 -382 0
-2 -76 -181 383 384 0
-2 -76 -181 383 -384 0
-2 -76 -181 -383 384 0
-2 -76 -181 -383 -384 0
43 -74 93 385 386 0
43 -74 93 385 -386 0
43 -74 93 -385 386 0
43 -74 93 -385 -386 0
14 -33 87 387 388 0
14 -33 87 387 -388 0
14 -33 87 -387 388 0
14 -33 87 -387 -388 0
-54 137 -145 389 390 0
-54 137 -145 389 -390 0
-54 137 -145 -389 390 0
-54 137 -145 -389 -390 0
-9 -147 195 391 392 0
-9 -147 195 391 -392 0
-9 -147 195 -391 392 0
-9 -147 195 -391 -392 0
88 -99 121 393 394 0
88 -99 121 393 -394 0
88 -99 121 -393 394 0
88 -99 121 -393 -394 0
-16 48 166 395 396 0
-16 48 166 395 -396 0
-16 48 166 -395 396 0
-16 48 166 -395 -396 0
126 169 -180 397 398 0
126 169 -180 397 -398 0
126 169 -180 -397 398 0
126 169 -180 -397 -398 0
126 136 -169 399 400 0
126 136 -169 399 -400 0
126 136 -169 -399 400 0
126 136 -169 -399 -400 0
-125 -126 -180 401 402 0
-125 -126 -180 401 -402 0
-125 -126 -180 -401 402 0
-125 -126 -180 -401 -402 0
-20 -176 -182 403 404 0
-20 -176 -182 403 -404 0
-20 -176 -182 -403 404 0
-20 -176 -182 -403 -404 0
71 119 175 405 406 0
71 119 175 405 -406 0
71 119 175 -405 406 0
71 119 175 -405 -406 0
96 -147 -187 407 408 0
96 -147 -187 407 -408 0
96 -147 -187 -407 408 0
96 -147 -187 -407 -408 0
-4 -21 103 409 410 0
-4 -21 103 409 -410 0
-4 -21 103 -409 410 0
-4 -21 103 -409 -410 0
30 68 -164 411 412 0
30 68 -164 411 -412 0
30 68 -164 -411 412 0
30 68 -164 -411 -412 0
-53 -108 144 413 414 0
-53 -108 144 413 -414 0
-53 -108 144 -413 414 0
-53 -108 144 -413 -414 0
24 67 -193 415 416 0
24 67 -193 415 -416 0
24 67 -193 -415 416 0
24 67 -193 -415 -416 0
56 120 -124 417 418 0
56 120 -124 417 -418 0
56 120 -124 -417 418 0
56 120 -124 -417 -418 0
104 -143 -150 419 420 0
104 -143 -150 419 -420 0
104 -143 -150 -419 420 0
104 -143 -150 -419 -420 0
-67 104 -150 421 422 0
-67 104 -150 421 -422 0
-67 104 -150 -421 422 0
-67 104 -150 -421 -422 0
-83 92 184 423 424 0
-83 92 184 423 -424 0
-83 92 184 -423 424 0
-83 92 184 -423 -424 0
-18 84 179 425 426 0
-18 84 179 425 -426 0
-18 84 179 -425 426 0
-18 84 179 -425 -426 0
1 36 127 427 428 0
1 36 127 427 -428 0
1 36 127 -427 428 0
1 36 127 -427 -428 0
-79 116 190 429 430 0
-79 116 190 429 -430 0
-79 116 190 -429 430 0
-79 116 190 -429 -430 0
-54 -145 164 431 432 0
-54 -145 164 431 -432 0
-54 -145 164 -431 432 0
-54 -145 164 -431 -432 0
1 158 -181 433 434 0
1 158 -181 433 -434 0
1 158 -181 -433 434 0
1 158 -181 -433 -434 0
157 161 170 435 436 0
157 161 170 435 -436 0
157 161 170 -435 436 0
157 161 170 -435 -436 0
-77 156 -196 437 438 0
-77 156 -196 437 -438 0
-77 156 -196 -437 438 0
-77 156 -196 -437 -438 0
-80 -174 -188 439 440 0
-80 -174 -188 439 -440 0
-80 -174 -188 -439 440 0
-80 -174 -188 -439 -440 0
-100 129 -187 441 442 0
-100 129 -187 441 -442 0
-100 129 -187 -441 442 0
-100 129 -187 -441 -442 0
23 34 -153 443 444 0
23 34 -153 443 -444 0
23 34 -153 -443 444 0
23 34 -153 -443 -444 0
74 -97 179 445 446 0
74 -97 179 445 -446 0
74 -97 179 -445 446 0
74 -97 179 -445 -446 0
26 -39 -178 447 448 0
26 -39 -178 447 -448 0
26 -39 -178 -447 448 0
26 -39 -178 -447 -448 0
11 23 69 449 450 0
11 23 69 449 -450 0
11 23 69 -449 450 0
11 23 69 -449 -450 0
-3 -86 -177 451 452 0
-3 -86 -177 451 -452 0
-3 -86 -177 -451 452 0
-3 -86 -177 -451 -452 0
-53 101 127 453 454 0
-53 101 127 453 -454 0
-53 101 127 -453 454 0
-53 101 127 -453 -454 0
-111 113 163 455 456 0
-111 113 163 455 -456 0
-111 113 163 -455 456 0
-111 113 163 -455 -456 0
-34 94 -194 457 458 0
-34 94 -194 457 -458 0
-34 94 -194 -457 458 0
-34 94 -194 -457 -458 0
-45 -154 -189 459 460 0
-45 -154 -189 459 -460 0
-45 -154 -189 -459 460 0
-45 -154 -189 -459 -460 0
-77 -95 -177 461 462 0
-77 -95 -177 461 -462 0
-77 -95 -177 -461 462 0
-77 -95 -177 -461 -462 0
67 92 104 463 464 0
67 92 104 463 -464 0
67 92 104 -463 464 0
67 92 104 -463 -464 0
-15 -38 -130 465 466 0
-15 -38 -130 465 -466 0
-15 -38 -130 -465 466 0
-15 -38 -130 -465 -466 0
-58 131 -158 467 468 0
-58 131 -158 467 -468 0
-58 131 -158 -467 468 0
-58 131 -158 -467 -468 0
129 169 171 469 470 0
129 169 171 469 -470 0
129 169 171 -469 470 0
129 169 171 -469 -470 0
171 172 197 471 472 0
171 172 197 471 -472 0
171 172 197 -471 472 0
171 172 197 -471 -472 0
-30 -48 200 473 474 0
-30 -48 200 473 -474 0
-30 -48 200 -473 474 0
-30 -48 200 -473 -474 0
28 75 -151 475 476 0
28 75 -151 475 -476 0
28 75 -151 -475 476 0
28 75 -151 -475 -476 0
-2 -40 139 477 478 0
-2 -40 139 477 -478 0
-2 -40 139 -477 478 0
-2 -40 139 -477 -478 0
-90 182 -200 479 480 0
-90 182 -200 479 -480 0
-90 182 -200 -479 480 0
-90 182 -200 -479 -480 0
39 63 195 481 482 0
39 63 195 481 -482 0
39 63 195 -481 482 0
39 63 195 -481 -482 0
21 68 111 483 484 0
21 68 111 483 -484 0
21 68 111 -483 484 0
21 68 111 -483 -484 0
77 111 -200 485 486 0
77 111 -200 485 -486 0
77 111 -200 -485 486 0
77 111 -200 -485 -486 0
45 187 -189 487 488 0
45 187 -189 487 -488 0
45 187 -189 -487 488 0
45 187 -189 -487 -488 0
58 -123 -135 489 490 0
58 -123 -135 489 -490 0
58 -123 -135 -489 490 0
58 -123 -135 -489 -490 0
-119 177 -179 491 492 0
-119 177 -179 491 -492 0
-119 177 -179 -491 492 0
-119 177 -179 -491 -492 0
-87 146 -184 493 494 0
-87 146 -184 493 -494 0
-87 146 -184 -493 494 0
-87 146 -184 -493 -494 0
7 124 168 495 496 0
7 124 168 495 -496 0
7 124 168 -495 496 0
7 124 168 -495 -496 0
-58 -142 -169 497 498 0
-58 -142 -169 497 -498 0
-58 -142 -169 -497 498 0
-58 -142 -169 -497 -498 0
13 40 -111 499 500 0
13 40 -111 499 -500 0
13 40 -111 -499 500 0
13 40 -111 -499 -500 0
-46 120 -148 501 502 0
-46 120 -148 501 -502 0
-46 120 -148 -501 502 0
-46 120 -148 -501 -502 0
30 -35 53 503 504 0
30 -35 53 503 -504 0
30 -35 53 -503 504 0
30 -35 53 -503 -504 0
-3 21 -40 505 506 0
-3 21 -40 505 -506 0
-3 21 -40 -505 506 0
-3 21 -40 -505 -506 0
-89 181 193 507 508 0
-89 181 193 507 -508 0
-89 181 193 -507 508 0
-89 181 193 -507 -508 0
48 -106 -144 509 510 0
48 -106 -144 509 -510 0
48 -106 -144 -509 510 0
48 -106 -144 -509 -510 0
57 87 89 511 512 0
57 87 89 511 -512 0
57 87 89 -511 512 0
57 87 89 -511 -512 0
38 -79 110 513 514 0
38 -79 110 513 -514 0
38 -79 110 -513 514 0
38 -79 110 -513 -514 0
-83 -191 -199 515 516 0
-83 -191 -199 515 -516 0
-83 -191 -199 -515 516 0
-83 -191 -199 -515 -516 0
-118 153 -166 517 518 0
-118 153 -166 517 -518 0
-118 153 -166 -517 518 0
-118 153 -166 -517 -518 0
-91 154 199 519 520 0
-91 154 199 519 -520 0
-91 154 199 -519 520 0
-91 154 199 -519 -520 0
24 123 -188 521 522 0
24 123 -188 521 -522 0
24 123 -188 -521 522 0
24 123 -188 -521 -522 0
-16 -95 186 523 524 0
-16 -95 186 523 -524 0
-16 -95 186 -523 524 0
-16 -95 186 -523 -524 0
-13 83 -101 525 526 0
-13 83 -101 525 -526 0
-13 83 -101 -525 526 0
-13 83 -101 -525 -526 0
-44 -63 74 527 528 0
-44 -63 74 527 -528 0
-44 -63 74 -527 528 0
-44 -63 74 -527 -528 0
-117 -129 -157 529 530 0
-117 -129 -157 529 -530 0
-117 -129 -157 -529 530 0
-117 -129 -157 -529 -530 0
3 40 -179 531 532 0
3 40 -179 531 -532 0
3 40 -179 -531 532 0
3 40 -179 -531 -532 0
90 -103 -154 533 534 0
90 -103 -154 533 -534 0
90 -103 -154 -533 534 0
90 -103 -154 -533 -534 0
-71 -88 135 535 536 0
-71 -88 135 535 -536 0
-71 -88 135 -535 536 0
-71 -88 135 -535 -536 0
38 94 145 537 538 0
38 94 145 537 -538 0
38 94 145 -537 538 0
38 94 145 -537 -538 0
-34 -59 -60 539 540 0
-34 -59 -60 539 -540 0
-34 -59 -60 -539 540 0
-34 -59 -60 -539 -540 0
-37 -46 117 541 542 0
-37 -46 117 541 -542 0
-37 -46 117 -541 542 0
-37 -46 117 -541 -542 0
-56 -76 89 543 544 0
-56 -76 89 543 -544 0
-56 -76 89 -543 544 0
-56 -76 89 -543 -544 0
15 -96 -195 545 546 0
15 -96 -195 545 -546 0
15 -96 -195 -545 546 0
15 -96 -195 -545 -546 0
-31 -150 -173 547 548 0
-31 -150 -173 547 -548 0
-31 -150 -173 -547 548 0
-31 -150 -173 -547 -548 0
-58 -90 -148 549 550 0
-58 -90 -148 549 -550 0
-58 -90 -148 -549 550 0
-58 -90 -148 -549 -550 0
73 -161 186 551 552 0
73 -161 186 551 -552 0
73 -161 186 -551 552 0
73 -161 186 -551 -552 0
-46 -77 150 553 554 0
-46 -77 150 553 -554 0
-46 -77 150 -553 554 0
-46 -77 150 -553 -554 0
-24 -84 188 555 556 0
-24 -84 188 555 -556 0
-24 -84 188 -555 556 0
-24 -84 188 -555 -556 0
135 -163 174 557 558 0
135 -163 174 557 -558 0
135 -163 174 -557 558 0
135 -163 174 -557 -558 0
-28 -101 -118 559 560 0
-28 -101 -118 559 -560 0
-28 -101 -118 -559 560 0
-28 -101 -118 -559 -560 0
7 -28 -115 561 562 0
7 -28 -115 561 -562 0
7 -28 -115 -561 562 0
7 -28 -115 -561 -562 0
68 79 185 563 564 0
68 79 185 563 -564 0
68 79 185 -563 564 0
68 79 185 -563 -564 0
-13 -43 73 565 566 0
-13 -43 73 565 -566 0
-13 -43 73 -565 566 0
-13 -43 73 -565 -566 0
47 -120 -139 567 568 0
47 -120 -139 567 -568 0
47 -120 -139 -567 568 0
47 -120 -139 -567 -568 0
10 -63 172 569 570 0
10 -63 172 569 -570 0
10 -63 172 -569 570 0
10 -63 172 -569 -570 0
-60 -119 180 571 572 0
-60 -119 180 571 -572 0
-60 -119 180 -571 572 0
-60 -119 180 -571 -572 0
72 103 -139 573 574 0
72 103 -139 573 -574 0
72 103 -139 -573 574 0
72 103 -139 -573 -574 0
-15 -129 173 575 576 0
-15 -129 173 575 -576 0
-15 -129 173 -575 576 0
-15 -129 173 -575 -576 0
-16 110 136 577 578 0
-16 110 136 577 -578 0
-16 110 136 -577 578 0
-16 110 136 -577 -578 0
-9 65 157 579 580 0
-9 65 157 579 -580 0
-9 65 157 -579 580 0
-9 65 157 -579 -580 0
19 188 -191 581 582 0
19 188 -191 581 -582 0
19 188 -191 -581 582 0
19 188 -191 -581 -582 0
8 -75 -169 583 584 0
8 -75 -169 583 -584 0
8 -75 -169 -583 584 0
8 -75 -169 -583 -584 0
39 -93 -141 585 586 0
39 -93 -141 585 -586 0
39 -93 -141 -585 586 0
39 -93 -141 -585 -586 0
108 -154 -163 587 588 0
108 -154 -163 587 -588 0
108 -154 -163 -587 588 0
108 -154 -163 -587 -588 0
-36 152 168 589 590 0
-36 152 168 589 -590 0
-36 152 168 -589 590 0
-36 152 168 -589 -590 0
25 37 52 591 592 0
25 37 52 591 -592 0
25 37 52 -591 592 0
25 37 52 -591 -592 0
2 -121 -156 593 594 0
2 -121 -156 593 -594 0
2 -121 -156 -593 594 0
2 -121 -156 -593 -594 0
-52 -154 -179 595 596 0
-52 -154 -179 595 -596 0
-52 -154 -179 -595 596 0
-52 -154 -179 -595 -596 0
-97 119 173 597 598 0
-97 119 173 597 -598 0
-97 119 173 -597 598 0
-97 119 173 -597 -598 0
56 90 186 599 600 0
56 90 186 599 -600 0
56 90 186 -599 600 0
56 90 186 -599 -600 0
-10 -121 186 601 602 0
-10 -121 186 601 -602 0
-10 -121 186 -601 602 0
-10 -121 186 -601 -602 0
3 -41 149 603 604 0
3 -41 149 603 -604 0
3 -41 149 -603 604 0
3 -41 149 -603 -604 0
44 -141 -143 605 606 0
44 -141 -143 605 -606 0
44 -141 -143 -605 606 0
44 -141 -143 -605 -606 0
59 -74 -194 607 608 0
59 -74 -194 607 -608 0
59 -74 -194 -607 608 0
59 -74 -194 -607 -608 0
16 -75 -170 609 610 0
16 -75 -170 609 -610 0
16 -75 -170 -609 610 0
16 -75 -170 -609 -610 0
115 -135 -139 611 612 0
115 -135 -139 611 -612 0
115 -135 -139 -611 612 0
115 -135 -139 -611 -612 0
27 95 -137 613 614 0
27 95 -137 613 -614 0
27 95 -137 -613 614 0
27 95 -137 -613 -614 0
27 -43 147 615 616 0
27 -43 147 615 -616 0
27 -43 147 -615 616 0
27 -43 147 -615 -616 0
4 -120 -185 617 618 0
4 -120 -185 617 -618 0
4 -120 -185 -617 618 0
4 -120 -185 -617 -618 0
38 -136 183 619 620 0
38 -136 183 619 -620 0
38 -136 183 -619 620 0
38 -136 183 -619 -620 0
-94 -126 138 621 622 0
-94 -126 138 621 -622 0
-94 -126 138 -621 622 0
-94 -126 138 -621 -622 0
2 16 -110 623 624 0
2 16 -110 623 -624 0
2 16 -110 -623 624 0
2 16 -110 -623 -624 0
8 -63 83 625 626 0
8 -63 83 625 -626 0
8 -63 83 -625 626 0
8 -63 83 -625 -626 0
-118 -171 -188 627 628 0
-118 -171 -188 627 -628 0
-118 -171 -188 -627 628 0
-118 -171 -188 -627 -628 0
-4 -27 84 629 630 0
-4 -27 84 629 -630 0
-4 -27 84 -629 630 0
-4 -27 84 -629 -630 0
-96 166 -168 631 632 0
-96 166 -168 631 -632 0
-96 166 -168 -631 632 0
-96 166 -168 -631 -632 0
41 -72 -178 633 634 0
41 -72 -178 633 -634 0
41 -72 -178 -633 634 0
41 -72 -178 -633 -634 0
-7 25 -177 635 636 0
-7 25 -177 635 -636 0
-7 25 -177 -635 636 0
-7 25 -177 -635 -636 0
4 -25 -67 637 638 0
4 -25 -67 637 -638 0
4 -25 -67 -637 638 0
4 -25 -67 -637 -638 0
-62 140 -174 639 640 0
-62 140 -174 639 -640 0
-62 140 -174 -639 640 0
-62 140 -174 -639 -640 0
39 -138 173 641 642 0
39 -138 173 641 -642 0
39 -138 173 -641 642 0
39 -138 173 -641 -642 0
-129 -173 -195 643 644 0
-129 -173 -195 643 -644 0
-129 -173 -195 -643 644 0
-129 -173 -195 -643 -644 0
-19 -105 172 645 646 0
-19 -105 172 645 -646 0
-19 -105 172 -645 646 0
-19 -105 172 -645 -646 0
105 -158 -186 647 648 0
105 -158 -186 647 -648 0
105 -158 -186 -647 648 0
105 -158 -186 -647 -648 0
13 114 -153 649 650 0
13 114 -153 649 -650 0
13 114 -153 -649 650 0
13 114 -153 -649 -650 0
19 28 189 651 652 0
19 28 189 651 -652 0
19 28 189 -651 652 0
19 28 189 -651 -652 0
-88 134 191 653 654 0
-88 134 191 653 -654 0
-88 134 191 -653 654 0
-88 134 191 -653 -654 0
47 -47 -165 655 656 0
47 -47 -165 655 -656 0
47 -47 -165 -655 656 0
47 -47 -165 -655 -656 0
-8 -43 113 657 658 0
-8 -43 113 657 -658 0
-8 -43 113 -657 658 0
-8 -43 113 -657 -658 0
-45 -147 -152 659 660 0
-45 -147 -152 659 -660 0
-45 -147 -152 -659 660 0
-45 -147 -152 -659 -660 0
40 117 130 661 662 0
40 117 130 661 -662 0
40 117 130 -661 662 0
40 117 130 -661 -662 0
85 -149 151 663 664 0
85 -149 151 663 -664 0
85 -149 151 -663 664 0
85 -149 151 -663 -664 0
-84 -104 -110 665 666 0
-84 -104 -110 665 -666 0
-84 -104 -110 -665 666 0
-84 -104 -110 -665 -666 0
-115 123 -158 667 668 0
-115 123 -158 667 -668 0
-115 123 -158 -667 668 0
-115 123 -158 -667 -668 0
-18 35 101 669 670 0
-18 35 101 669 -670 0
-18 35 101 -669 670 0
-18 35 101 -669 -670 0
-11 72 -117 671 672 0
-11 72 -117 671 -672 0
-11 72 -117 -671 672 0
-11 72 -117 -671 -672 0
-52 177 673 674 675 0
-52 177 673 674 -675 0
-52 177 673 -674 675 0
-52 177 673 -674 -675 0
-52 177 -673 674 675 0
-52 177 -673 674 -675 0
-52 177 -673 -674 675 0
-52 177 -673 -674 -675 0
-113 -151 -183 676 677 0
-113 -151 -183 676 -677 0
-113 -151 -183 -676 677 0
-113 -151 -183 -676 -677 0
-152 198 200 678 679 0
-152 198 200 678 -679 0
-152 198 200 -678 679 0
-152 198 200 -678 -679 0
41 43 -192 680 681 0
41 43 -192 680 -681 0
41 43 -192 -680 681 0
41 43 -192 -680 -681 0
-15 -76 -104 682 683 0
-15 -76 -104 682 -683 0
-15 -76 -104 -682 683 0
-15 -76 -104 -682 -683 0
-26 -59 143 684 685 0
-26 -59 143 684 -685 0
-26 -59 143 -684 685 0
-26 -59 143 -684 -685 0
37 80 183 686 687 0
37 80 183 686 -687 0
37 80 183 -686 687 0
37 80 183 -686 -687 0
-126 141 -187 688 689 0
-126 141 -187 688 -689 0
-126 141 -187 -688 689 0
-126 141 -187 -688 -689 0
-87 114 -171 690 691 0
-87 114 -171 690 -691 0
-87 114 -171 -690 691 0
-87 114 -171 -690 -691 0
-35 -73 -114 692 693 0
-35 -73 -114 692 -693 0
-35 -73 -114 -692 693 0
-35 -73 -114 -692 -693 0
-85 -92 -127 694 695 0
-85 -92 -127 694 -695 0
-85 -92 -127 -694 695 0
-85 -92 -127 -694 -695 0
-13 -176 178 696 697 0
-13 -176 178 696 -697 0
-13 -176 178 -696 697 0
-13 -176 178 -696 -697 0
-8 10 158 698 699 0
-8 10 158 698 -699 0
-8 10 158 -698 699 0
-8 10 158 -698 -699 0
-87 133 161 700 701 0
-87 133 161 700 -701 0
-87 133 161 -700 701 0
-87 133 161 -700 -701 0
174 -175 -190 702 703 0
174 -175 -190 702 -703 0
174 -175 -190 -702 703 0
174 -175 -190 -702 -703 0
18 -36 -157 704 705 0
18 -36 -157 704 -705 0
18 -36 -157 -704 705 0
18 -36 -157 -704 -705 0
-27 -96 -182 706 707 0
-27 -96 -182 706 -707 0
-27 -96 -182 -706 707 0
-27 -96 -182 -706 -707 0
67 -162 -175 708 709 0
67 -162 -175 708 -709 0
67 -162 -175 -708 709 0
67 -162 -175 -708 -709 0
-90 -134 152 710 711 0
-90 -134 152 710 -711 0
-90 -134 152 -710 711 0
-90 -134 152 -710 -711 0
-25 -103 114 712 713 0
-25 -103 114 712 -713 0
-25 -103 114 -712 713 0
-25 -103 114 -712 -713 0
108 -120 -148 714 715 0
108 -120 -148 714 -715 0
108 -120 -148 -714 715 0
108 -120 -148 -714 -715 0
21 41 -41 716 717 0
21 41 -41 716 -717 0
21 41 -41 -716 717 0
21 41 -41 -716 -717 0
-44 -48 -141 718 719 0
-44 -48 -141 718 -719 0
-44 -48 -141 -718 719 0
-44 -48 -141 -718 -719 0
-50 52 138 720 721 0
-50 52 138 720 -721 0
-50 52 138 -720 721 0
-50 52 138 -720 -721 0
28 -121 176 722 723 0
28 -121 176 722 -723 0
28 -121 176 -722 723 0
28 -121 176 -722 -723 0
22 -127 -151 724 725 0
22 -127 -151 724 -725 0
22 -127 -151 -724 725 0
22 -127 -151 -724 -725 0
63 80 -161 726 727 0
63 80 -161 726 -727 0
63 80 -161 -726 727 0
63 80 -161 -726 -727 0
30 -44 76 728 729 0
30 -44 76 728 -729 0
30 -44 76 -728 729 0
30 -44 76 -728 -729 0
10 -39 189 730 731 0
10 -39 189 730 -731 0
10 -39 189 -730 731 0
10 -39 189 -730 -731 0
52 76 130 732 733 0
52 76 130 732 -733 0
52 76 130 -732 733 0
52 76 130 -732 -733 0
131 -157 -186 734 735 0
131 -157 -186 734 -735 0
131 -157 -186 -734 735 0
131 -157 -186 -734 -735 0
22 94 -182 736 737 0
22 94 -182 736 -737 0
22 94 -182 -736 737 0
22 94 -182 -736 -737 0
-114 148 194 738 739 0
-114 148 194 738 -739 0
-114 148 194 -738 739 0
-114 148 194 -738 -739 0
-138 150 -166 740 741 0
-138 150 -166 740 -741 0
-138 150 -166 -740 741 0
-138 150 -166 -740 -741 0
-29 141 -148 742 743 0
-29 141 -148 742 -743 0
-29 141 -148 -742 743 0
-29 141 -148 -742 -743 0
-7 -92 -190 744 745 0
-7 -92 -190 744 -745 0
-7 -92 -190 -744 745 0
-7 -92 -190 -744 -745 0
-84 95 -136 746 747 0
-84 95 -136 746 -747 0
-84 95 -136 -746 747 0
-84 95 -136 -746 -747 0
-25 149 175 748 749 0
-25 149 175 748 -749 0
-25 149 175 -748 749 0
-25 149 175 -748 -749 0
-94 -190 196 750 751 0
-94 -190 196 750 -751 0
-94 -190 196 -750 751 0
-94 -190 196 -750 -751 0
-34 75 -185 752 753 0
-34 75 -185 752 -753 0
-34 75 -185 -752 753 0
-34 75 -185 -752 -753 0
115 185 194 754 755 0
115 185 194 754 -755 0
115 185 194 -754 755 0
115 185 194 -754 -755 0
18 19 -94 756 757 0
18 19 -94 756 -757 0
18 19 -94 -756 757 0
18 19 -94 -756 -757 0
-79 -113 176 758 759 0
-79 -113 176 758 -759 0
-79 -113 176 -758 759 0
-79 -113 176 -758 -759 0
92 93 -93 760 761 0
92 93 -93 760 -761 0
92 93 -93 -760 761 0
92 93 -93 -760 -761 0
34 -73 118 762 763 0
34 -73 118 762 -763 0
34 -73 118 -762 763 0
34 -73 118 -762 -763 0
54 -105 164 764 765 0
54 -105 164 764 -765 0
54 -105 164 -764 765 0
54 -105 164 -764 -765 0
-85 -149 166 766 767 0
-85 -149 166 766 -767 0
-85 -149 166 -766 767 0
-85 -149 166 -766 -767 0
-32 85 -160 768 769 0
-32 85 -160 768 -769 0
-32 85 -160 -768 769 0
-32 85 -160 -768 -769 0
58 153 186 770 771 0
58 153 186 770 -771 0
58 153 186 -770 771 0
58 153 186 -770 -771 0
-146 -177 191 772 773 0
-146 -177 191 772 -773 0
-146 -177 191 -772 773 0
-146 -177 191 -772 -773 0
-100 -130 180 774 775 0
-100 -130 180 774 -775 0
-100 -130 180 -774 775 0
-100 -130 180 -774 -775 0
9 -16 65 776 777 0
9 -16 65 776 -777 0
9 -16 65 -776 777 0
9 -16 65 -776 -777 0
11 -186 -187 778 779 0
11 -186 -187 778 -779 0
11 -186 -187 -778 779 0
11 -186 -187 -778 -779 0
-3 -35 165 780 781 0
-3 -35 165 780 -781 0
-3 -35 165 -780 781 0
-3 -35 165 -780 -781 0
-10 28 196 782 783 0
-10 28 196 782 -783 0
-10 28 196 -782 783 0
-10 28 196 -782 -783 0
-19 154 182 784 785 0
-19 154 182 784 -785 0
-19 154 182 -784 785 0
-19 154 182 -784 -785 0
58 -64 -94 786 787 0
58 -64 -94 786 -787 0
58 -64 -94 -786 787 0
58 -64 -94 -786 -787 0
44 -104 -123 788 789 0
44 -104 -123 788 -789 0
44 -104 -123 -788 789 0
44 -104 -123 -788 -789 0
-1 -47 -115 790 791 0
-1 -47 -115 790 -791 0
-1 -47 -115 -790 791 0
-1 -47 -115 -790 -791 0
-2 22 -80 792 793 0
-2 22 -80 792 -793 0
-2 22 -80 -792 793 0
-2 22 -80 -792 -793 0
79 102 176 794 795 0
79 102 176 794 -795 0
79 102 176 -794 795 0
79 102 176 -794 -795 0
-71 -86 -177 796 797 0
-71 -86 -177 796 -797 0
-71 -86 -177 -796 797 0
-71 -86 -177 -796 -797 0
-11 44 86 798 799 0
-11 44 86 798 -799 0
-11 44 86 -798 799 0
-11 44 86 -798 -799 0
-56 135 194 800 801 0
-56 135 194 800 -801 0
-56 135 194 -800 801 0
-56 135 194 -800 -801 0
-1 -95 -164 802 803 0
-1 -95 -164 802 -803 0
-1 -95 -164 -802 803 0
-1 -95 -164 -802 -803 0
139 178 -183 804 805 0
139 178 -183 804 -805 0
139 178 -183 -804 805 0
139 178 -183 -804 -805 0
-17 88 187 806 807 0
-17 88 187 806 -807 0
-17 88 187 -806 807 0
-17 88 187 -806 -807 0
-27 -43 -160 808 809 0
-27 -43 -160 808 -809 0
-27 -43 -160 -808 809 0
-27 -43 -160 -808 -809 0
34 71 -100 810 811 0
34 71 -100 810 -811 0
34 71 -100 -810 811 0
34 71 -100 -810 -811 0
15 -72 -168 812 813 0
15 -72 -168 812 -813 0
15 -72 -168 -812 813 0
15 -72 -168 -812 -813 0
-102 143 191 814 815 0
-102 143 191 814 -815 0
-102 143 191 -814 815 0
-102 143 191 -814 -815 0
-26 54 148 816 817 0
-26 54 148 816 -817 0
-26 54 148 -816 817 0
-26 54 148 -816 -817 0
-24 71 -155 818 819 0
-24 71 -155 818 -819 0
-24 71 -155 -818 819 0
-24 71 -155 -818 -819 0
-25 105 -196 820 821 0
-25 105 -196 820 -821 0
-25 105 -196 -820 821 0
-25 105 -196 -820 -821 0
-1 80 152 822 823 0
-1 80 152 822 -823 0
-1 80 152 -822 823 0
-1 80 152 -822 -823 0
59 -117 156 824 825 0
59 -117 156 824 -825 0
59 -117 156 -824 825 0
59 -117 156 -824 -825 0
-38 53 151 826 827 0
-38 53 151 826 -827 0
-38 53 151 -826 827 0
-38 53 151 -826 -827 0
73 144 196 828 829 0
73 144 196 828 -829 0
73 144 196 -828 829 0
73 144 196 -828 -829 0
77 147 188 830 831 0
77 147 188 830 -831 0
77 147 188 -830 831 0
77 147 188 -830 -831 0
26 -30 -103 832 833 0
26 -30 -103 832 -833 0
26 -30 -103 -832 833 0
26 -30 -103 -832 -833 0
-31 36 -117 834 835 0
-31 36 -117 834 -835 0
-31 36 -117 -834 835 0
-31 36 -117 -834 -835 0
-94 118 -183 836 837 0
-94 118 -183 836 -837 0
-94 118 -183 -836 837 0
-94 118 -183 -836 -837 0
12 -84 194 838 839 0
12 -84 194 838 -839 0
12 -84 194 -838 839 0
12 -84 194 -838 -839 0
96 145 186 840 841 0
96 145 186 840 -841 0
96 145 186 -840 841 0
96 145 186 -840 -841 0
